%nprocshared=1
#P RHF/6-31g* Opt gfinput gfprint iop(6/7=3) scf=conventional
 
Gaussian Template from GridChem
Molecule Built by NCSA-Nanocad 
 
0 1
O -0.11099999999999999 -0.15000000000000002 -0.37133333333333335
H -4.4661775 -0.7242449999999999 -0.09433333333333335
H 0.6602091666666666 -2.7185083333333337 0.4656666666666667
